(set-option :produce-models true)
(declare-fun p_perrA () Real)
(assert (and (>= p_perrA 0.000000) (<= p_perrA 1.000000)))
(declare-fun p_perrB () Real)
(assert (and (>= p_perrB 0.000000) (<= p_perrB 1.000000)))
(declare-fun p_prob1 () Real)
(assert (and (>= p_prob1 0.000000) (<= p_prob1 1.000000)))
(declare-fun p_prob2 () Real)
(assert (and (>= p_prob2 0.000000) (<= p_prob2 1.000000)))
(declare-fun ri_0 () Bool)
(declare-fun ri_1 () Bool)
(declare-fun ri_10 () Bool)
(declare-fun ri_100 () Bool)
(declare-fun ri_101 () Bool)
(declare-fun ri_102 () Bool)
(declare-fun ri_103 () Bool)
(declare-fun ri_11 () Bool)
(declare-fun ri_12 () Bool)
(declare-fun ri_13 () Bool)
(declare-fun ri_14 () Bool)
(declare-fun ri_15 () Bool)
(declare-fun ri_16 () Bool)
(declare-fun ri_17 () Bool)
(declare-fun ri_18 () Bool)
(declare-fun ri_19 () Bool)
(declare-fun ri_2 () Bool)
(declare-fun ri_20 () Bool)
(declare-fun ri_21 () Bool)
(declare-fun ri_22 () Bool)
(declare-fun ri_23 () Bool)
(declare-fun ri_24 () Bool)
(declare-fun ri_25 () Bool)
(declare-fun ri_26 () Bool)
(declare-fun ri_27 () Bool)
(declare-fun ri_28 () Bool)
(declare-fun ri_29 () Bool)
(declare-fun ri_3 () Bool)
(declare-fun ri_30 () Bool)
(declare-fun ri_31 () Bool)
(declare-fun ri_32 () Bool)
(declare-fun ri_33 () Bool)
(declare-fun ri_34 () Bool)
(declare-fun ri_35 () Bool)
(declare-fun ri_36 () Bool)
(declare-fun ri_37 () Bool)
(declare-fun ri_38 () Bool)
(declare-fun ri_39 () Bool)
(declare-fun ri_4 () Bool)
(declare-fun ri_40 () Bool)
(declare-fun ri_41 () Bool)
(declare-fun ri_42 () Bool)
(declare-fun ri_43 () Bool)
(declare-fun ri_44 () Bool)
(declare-fun ri_45 () Bool)
(declare-fun ri_46 () Bool)
(declare-fun ri_47 () Bool)
(declare-fun ri_48 () Bool)
(declare-fun ri_49 () Bool)
(declare-fun ri_5 () Bool)
(declare-fun ri_50 () Bool)
(declare-fun ri_51 () Bool)
(declare-fun ri_52 () Bool)
(declare-fun ri_53 () Bool)
(declare-fun ri_54 () Bool)
(declare-fun ri_55 () Bool)
(declare-fun ri_56 () Bool)
(declare-fun ri_57 () Bool)
(declare-fun ri_58 () Bool)
(declare-fun ri_59 () Bool)
(declare-fun ri_6 () Bool)
(declare-fun ri_60 () Bool)
(declare-fun ri_61 () Bool)
(declare-fun ri_62 () Bool)
(declare-fun ri_63 () Bool)
(declare-fun ri_64 () Bool)
(declare-fun ri_65 () Bool)
(declare-fun ri_66 () Bool)
(declare-fun ri_67 () Bool)
(declare-fun ri_68 () Bool)
(declare-fun ri_69 () Bool)
(declare-fun ri_7 () Bool)
(declare-fun ri_70 () Bool)
(declare-fun ri_71 () Bool)
(declare-fun ri_72 () Bool)
(declare-fun ri_73 () Bool)
(declare-fun ri_74 () Bool)
(declare-fun ri_75 () Bool)
(declare-fun ri_76 () Bool)
(declare-fun ri_77 () Bool)
(declare-fun ri_78 () Bool)
(declare-fun ri_79 () Bool)
(declare-fun ri_8 () Bool)
(declare-fun ri_80 () Bool)
(declare-fun ri_81 () Bool)
(declare-fun ri_82 () Bool)
(declare-fun ri_83 () Bool)
(declare-fun ri_84 () Bool)
(declare-fun ri_85 () Bool)
(declare-fun ri_86 () Bool)
(declare-fun ri_87 () Bool)
(declare-fun ri_88 () Bool)
(declare-fun ri_89 () Bool)
(declare-fun ri_9 () Bool)
(declare-fun ri_90 () Bool)
(declare-fun ri_91 () Bool)
(declare-fun ri_92 () Bool)
(declare-fun ri_93 () Bool)
(declare-fun ri_94 () Bool)
(declare-fun ri_95 () Bool)
(declare-fun ri_96 () Bool)
(declare-fun ri_97 () Bool)
(declare-fun ri_98 () Bool)
(declare-fun ri_99 () Bool)
(declare-fun t_0_1 () Real)
(assert (and (>= t_0_1 0) (<= t_0_1 1)))
(declare-fun t_100_103 () Real)
(assert (and (>= t_100_103 0) (<= t_100_103 1)))
(declare-fun t_101_101 () Real)
(assert (and (>= t_101_101 0) (<= t_101_101 1)))
(declare-fun t_102_102 () Real)
(assert (and (>= t_102_102 0) (<= t_102_102 1)))
(declare-fun t_103_103 () Real)
(assert (and (>= t_103_103 0) (<= t_103_103 1)))
(declare-fun t_10_12 () Real)
(assert (and (>= t_10_12 0) (<= t_10_12 1)))
(declare-fun t_10_13 () Real)
(assert (and (>= t_10_13 0) (<= t_10_13 1)))
(declare-fun t_11_14 () Real)
(assert (and (>= t_11_14 0) (<= t_11_14 1)))
(declare-fun t_11_15 () Real)
(assert (and (>= t_11_15 0) (<= t_11_15 1)))
(declare-fun t_12_16 () Real)
(assert (and (>= t_12_16 0) (<= t_12_16 1)))
(declare-fun t_12_17 () Real)
(assert (and (>= t_12_17 0) (<= t_12_17 1)))
(declare-fun t_13_18 () Real)
(assert (and (>= t_13_18 0) (<= t_13_18 1)))
(declare-fun t_13_19 () Real)
(assert (and (>= t_13_19 0) (<= t_13_19 1)))
(declare-fun t_14_20 () Real)
(assert (and (>= t_14_20 0) (<= t_14_20 1)))
(declare-fun t_14_21 () Real)
(assert (and (>= t_14_21 0) (<= t_14_21 1)))
(declare-fun t_15_22 () Real)
(assert (and (>= t_15_22 0) (<= t_15_22 1)))
(declare-fun t_15_23 () Real)
(assert (and (>= t_15_23 0) (<= t_15_23 1)))
(declare-fun t_16_24 () Real)
(assert (and (>= t_16_24 0) (<= t_16_24 1)))
(declare-fun t_16_25 () Real)
(assert (and (>= t_16_25 0) (<= t_16_25 1)))
(declare-fun t_17_24 () Real)
(assert (and (>= t_17_24 0) (<= t_17_24 1)))
(declare-fun t_17_25 () Real)
(assert (and (>= t_17_25 0) (<= t_17_25 1)))
(declare-fun t_18_24 () Real)
(assert (and (>= t_18_24 0) (<= t_18_24 1)))
(declare-fun t_18_25 () Real)
(assert (and (>= t_18_25 0) (<= t_18_25 1)))
(declare-fun t_19_24 () Real)
(assert (and (>= t_19_24 0) (<= t_19_24 1)))
(declare-fun t_19_25 () Real)
(assert (and (>= t_19_25 0) (<= t_19_25 1)))
(declare-fun t_1_2 () Real)
(assert (and (>= t_1_2 0) (<= t_1_2 1)))
(declare-fun t_1_3 () Real)
(assert (and (>= t_1_3 0) (<= t_1_3 1)))
(declare-fun t_20_25 () Real)
(assert (and (>= t_20_25 0) (<= t_20_25 1)))
(declare-fun t_20_26 () Real)
(assert (and (>= t_20_26 0) (<= t_20_26 1)))
(declare-fun t_21_25 () Real)
(assert (and (>= t_21_25 0) (<= t_21_25 1)))
(declare-fun t_21_26 () Real)
(assert (and (>= t_21_26 0) (<= t_21_26 1)))
(declare-fun t_22_25 () Real)
(assert (and (>= t_22_25 0) (<= t_22_25 1)))
(declare-fun t_22_26 () Real)
(assert (and (>= t_22_26 0) (<= t_22_26 1)))
(declare-fun t_23_25 () Real)
(assert (and (>= t_23_25 0) (<= t_23_25 1)))
(declare-fun t_23_26 () Real)
(assert (and (>= t_23_26 0) (<= t_23_26 1)))
(declare-fun t_24_27 () Real)
(assert (and (>= t_24_27 0) (<= t_24_27 1)))
(declare-fun t_25_28 () Real)
(assert (and (>= t_25_28 0) (<= t_25_28 1)))
(declare-fun t_26_29 () Real)
(assert (and (>= t_26_29 0) (<= t_26_29 1)))
(declare-fun t_27_30 () Real)
(assert (and (>= t_27_30 0) (<= t_27_30 1)))
(declare-fun t_28_31 () Real)
(assert (and (>= t_28_31 0) (<= t_28_31 1)))
(declare-fun t_29_32 () Real)
(assert (and (>= t_29_32 0) (<= t_29_32 1)))
(declare-fun t_2_4 () Real)
(assert (and (>= t_2_4 0) (<= t_2_4 1)))
(declare-fun t_2_5 () Real)
(assert (and (>= t_2_5 0) (<= t_2_5 1)))
(declare-fun t_30_33 () Real)
(assert (and (>= t_30_33 0) (<= t_30_33 1)))
(declare-fun t_31_34 () Real)
(assert (and (>= t_31_34 0) (<= t_31_34 1)))
(declare-fun t_31_35 () Real)
(assert (and (>= t_31_35 0) (<= t_31_35 1)))
(declare-fun t_32_36 () Real)
(assert (and (>= t_32_36 0) (<= t_32_36 1)))
(declare-fun t_33_37 () Real)
(assert (and (>= t_33_37 0) (<= t_33_37 1)))
(declare-fun t_33_40 () Real)
(assert (and (>= t_33_40 0) (<= t_33_40 1)))
(declare-fun t_34_37 () Real)
(assert (and (>= t_34_37 0) (<= t_34_37 1)))
(declare-fun t_34_40 () Real)
(assert (and (>= t_34_40 0) (<= t_34_40 1)))
(declare-fun t_35_38 () Real)
(assert (and (>= t_35_38 0) (<= t_35_38 1)))
(declare-fun t_35_41 () Real)
(assert (and (>= t_35_41 0) (<= t_35_41 1)))
(declare-fun t_36_39 () Real)
(assert (and (>= t_36_39 0) (<= t_36_39 1)))
(declare-fun t_36_42 () Real)
(assert (and (>= t_36_42 0) (<= t_36_42 1)))
(declare-fun t_37_43 () Real)
(assert (and (>= t_37_43 0) (<= t_37_43 1)))
(declare-fun t_38_44 () Real)
(assert (and (>= t_38_44 0) (<= t_38_44 1)))
(declare-fun t_39_45 () Real)
(assert (and (>= t_39_45 0) (<= t_39_45 1)))
(declare-fun t_3_6 () Real)
(assert (and (>= t_3_6 0) (<= t_3_6 1)))
(declare-fun t_3_7 () Real)
(assert (and (>= t_3_7 0) (<= t_3_7 1)))
(declare-fun t_40_46 () Real)
(assert (and (>= t_40_46 0) (<= t_40_46 1)))
(declare-fun t_41_47 () Real)
(assert (and (>= t_41_47 0) (<= t_41_47 1)))
(declare-fun t_42_48 () Real)
(assert (and (>= t_42_48 0) (<= t_42_48 1)))
(declare-fun t_43_49 () Real)
(assert (and (>= t_43_49 0) (<= t_43_49 1)))
(declare-fun t_44_50 () Real)
(assert (and (>= t_44_50 0) (<= t_44_50 1)))
(declare-fun t_45_51 () Real)
(assert (and (>= t_45_51 0) (<= t_45_51 1)))
(declare-fun t_46_52 () Real)
(assert (and (>= t_46_52 0) (<= t_46_52 1)))
(declare-fun t_47_53 () Real)
(assert (and (>= t_47_53 0) (<= t_47_53 1)))
(declare-fun t_48_54 () Real)
(assert (and (>= t_48_54 0) (<= t_48_54 1)))
(declare-fun t_49_55 () Real)
(assert (and (>= t_49_55 0) (<= t_49_55 1)))
(declare-fun t_4_8 () Real)
(assert (and (>= t_4_8 0) (<= t_4_8 1)))
(declare-fun t_4_9 () Real)
(assert (and (>= t_4_9 0) (<= t_4_9 1)))
(declare-fun t_50_56 () Real)
(assert (and (>= t_50_56 0) (<= t_50_56 1)))
(declare-fun t_51_57 () Real)
(assert (and (>= t_51_57 0) (<= t_51_57 1)))
(declare-fun t_52_58 () Real)
(assert (and (>= t_52_58 0) (<= t_52_58 1)))
(declare-fun t_53_59 () Real)
(assert (and (>= t_53_59 0) (<= t_53_59 1)))
(declare-fun t_54_60 () Real)
(assert (and (>= t_54_60 0) (<= t_54_60 1)))
(declare-fun t_55_61 () Real)
(assert (and (>= t_55_61 0) (<= t_55_61 1)))
(declare-fun t_55_62 () Real)
(assert (and (>= t_55_62 0) (<= t_55_62 1)))
(declare-fun t_56_61 () Real)
(assert (and (>= t_56_61 0) (<= t_56_61 1)))
(declare-fun t_56_62 () Real)
(assert (and (>= t_56_62 0) (<= t_56_62 1)))
(declare-fun t_57_61 () Real)
(assert (and (>= t_57_61 0) (<= t_57_61 1)))
(declare-fun t_57_62 () Real)
(assert (and (>= t_57_62 0) (<= t_57_62 1)))
(declare-fun t_58_62 () Real)
(assert (and (>= t_58_62 0) (<= t_58_62 1)))
(declare-fun t_58_63 () Real)
(assert (and (>= t_58_63 0) (<= t_58_63 1)))
(declare-fun t_59_62 () Real)
(assert (and (>= t_59_62 0) (<= t_59_62 1)))
(declare-fun t_59_63 () Real)
(assert (and (>= t_59_63 0) (<= t_59_63 1)))
(declare-fun t_5_8 () Real)
(assert (and (>= t_5_8 0) (<= t_5_8 1)))
(declare-fun t_5_9 () Real)
(assert (and (>= t_5_9 0) (<= t_5_9 1)))
(declare-fun t_60_62 () Real)
(assert (and (>= t_60_62 0) (<= t_60_62 1)))
(declare-fun t_60_63 () Real)
(assert (and (>= t_60_63 0) (<= t_60_63 1)))
(declare-fun t_61_64 () Real)
(assert (and (>= t_61_64 0) (<= t_61_64 1)))
(declare-fun t_62_65 () Real)
(assert (and (>= t_62_65 0) (<= t_62_65 1)))
(declare-fun t_63_66 () Real)
(assert (and (>= t_63_66 0) (<= t_63_66 1)))
(declare-fun t_64_67 () Real)
(assert (and (>= t_64_67 0) (<= t_64_67 1)))
(declare-fun t_65_68 () Real)
(assert (and (>= t_65_68 0) (<= t_65_68 1)))
(declare-fun t_66_69 () Real)
(assert (and (>= t_66_69 0) (<= t_66_69 1)))
(declare-fun t_67_70 () Real)
(assert (and (>= t_67_70 0) (<= t_67_70 1)))
(declare-fun t_68_71 () Real)
(assert (and (>= t_68_71 0) (<= t_68_71 1)))
(declare-fun t_68_72 () Real)
(assert (and (>= t_68_72 0) (<= t_68_72 1)))
(declare-fun t_69_73 () Real)
(assert (and (>= t_69_73 0) (<= t_69_73 1)))
(declare-fun t_6_8 () Real)
(assert (and (>= t_6_8 0) (<= t_6_8 1)))
(declare-fun t_6_9 () Real)
(assert (and (>= t_6_9 0) (<= t_6_9 1)))
(declare-fun t_70_74 () Real)
(assert (and (>= t_70_74 0) (<= t_70_74 1)))
(declare-fun t_70_77 () Real)
(assert (and (>= t_70_77 0) (<= t_70_77 1)))
(declare-fun t_71_74 () Real)
(assert (and (>= t_71_74 0) (<= t_71_74 1)))
(declare-fun t_71_77 () Real)
(assert (and (>= t_71_77 0) (<= t_71_77 1)))
(declare-fun t_72_75 () Real)
(assert (and (>= t_72_75 0) (<= t_72_75 1)))
(declare-fun t_72_78 () Real)
(assert (and (>= t_72_78 0) (<= t_72_78 1)))
(declare-fun t_73_76 () Real)
(assert (and (>= t_73_76 0) (<= t_73_76 1)))
(declare-fun t_73_79 () Real)
(assert (and (>= t_73_79 0) (<= t_73_79 1)))
(declare-fun t_74_80 () Real)
(assert (and (>= t_74_80 0) (<= t_74_80 1)))
(declare-fun t_75_81 () Real)
(assert (and (>= t_75_81 0) (<= t_75_81 1)))
(declare-fun t_76_82 () Real)
(assert (and (>= t_76_82 0) (<= t_76_82 1)))
(declare-fun t_77_83 () Real)
(assert (and (>= t_77_83 0) (<= t_77_83 1)))
(declare-fun t_78_84 () Real)
(assert (and (>= t_78_84 0) (<= t_78_84 1)))
(declare-fun t_79_85 () Real)
(assert (and (>= t_79_85 0) (<= t_79_85 1)))
(declare-fun t_7_8 () Real)
(assert (and (>= t_7_8 0) (<= t_7_8 1)))
(declare-fun t_7_9 () Real)
(assert (and (>= t_7_9 0) (<= t_7_9 1)))
(declare-fun t_80_86 () Real)
(assert (and (>= t_80_86 0) (<= t_80_86 1)))
(declare-fun t_81_87 () Real)
(assert (and (>= t_81_87 0) (<= t_81_87 1)))
(declare-fun t_82_88 () Real)
(assert (and (>= t_82_88 0) (<= t_82_88 1)))
(declare-fun t_83_89 () Real)
(assert (and (>= t_83_89 0) (<= t_83_89 1)))
(declare-fun t_84_90 () Real)
(assert (and (>= t_84_90 0) (<= t_84_90 1)))
(declare-fun t_85_91 () Real)
(assert (and (>= t_85_91 0) (<= t_85_91 1)))
(declare-fun t_86_92 () Real)
(assert (and (>= t_86_92 0) (<= t_86_92 1)))
(declare-fun t_87_93 () Real)
(assert (and (>= t_87_93 0) (<= t_87_93 1)))
(declare-fun t_88_94 () Real)
(assert (and (>= t_88_94 0) (<= t_88_94 1)))
(declare-fun t_89_95 () Real)
(assert (and (>= t_89_95 0) (<= t_89_95 1)))
(declare-fun t_8_10 () Real)
(assert (and (>= t_8_10 0) (<= t_8_10 1)))
(declare-fun t_90_96 () Real)
(assert (and (>= t_90_96 0) (<= t_90_96 1)))
(declare-fun t_91_97 () Real)
(assert (and (>= t_91_97 0) (<= t_91_97 1)))
(declare-fun t_92_98 () Real)
(assert (and (>= t_92_98 0) (<= t_92_98 1)))
(declare-fun t_92_99 () Real)
(assert (and (>= t_92_99 0) (<= t_92_99 1)))
(declare-fun t_93_98 () Real)
(assert (and (>= t_93_98 0) (<= t_93_98 1)))
(declare-fun t_93_99 () Real)
(assert (and (>= t_93_99 0) (<= t_93_99 1)))
(declare-fun t_94_98 () Real)
(assert (and (>= t_94_98 0) (<= t_94_98 1)))
(declare-fun t_94_99 () Real)
(assert (and (>= t_94_99 0) (<= t_94_99 1)))
(declare-fun t_95_100 () Real)
(assert (and (>= t_95_100 0) (<= t_95_100 1)))
(declare-fun t_95_99 () Real)
(assert (and (>= t_95_99 0) (<= t_95_99 1)))
(declare-fun t_96_100 () Real)
(assert (and (>= t_96_100 0) (<= t_96_100 1)))
(declare-fun t_96_99 () Real)
(assert (and (>= t_96_99 0) (<= t_96_99 1)))
(declare-fun t_97_100 () Real)
(assert (and (>= t_97_100 0) (<= t_97_100 1)))
(declare-fun t_97_99 () Real)
(assert (and (>= t_97_99 0) (<= t_97_99 1)))
(declare-fun t_98_101 () Real)
(assert (and (>= t_98_101 0) (<= t_98_101 1)))
(declare-fun t_99_102 () Real)
(assert (and (>= t_99_102 0) (<= t_99_102 1)))
(declare-fun t_9_11 () Real)
(assert (and (>= t_9_11 0) (<= t_9_11 1)))
(assert (= ri_0 true))
(assert (= (= ri_0 false) (=  t_0_1 0)))
(assert (= (= ri_0 true) (=  t_0_1 1)))
(assert (=> (= ri_0 true) (= 1.0 t_0_1)))
(assert (= (= ri_1 false) (=  t_0_1 0)))
(assert (= (= ri_1 false) (= (+ t_1_2 t_1_3) 0)))
(assert (= (= ri_1 true) (= (+ t_1_2 t_1_3) 1)))
(assert (=> (= ri_1 true) (= (- 1 p_prob1) t_1_2)))
(assert (=> (= ri_1 true) (= p_prob1 t_1_3)))
(assert (= (= ri_2 false) (=  t_1_2 0)))
(assert (= (= ri_2 false) (= (+ t_2_4 t_2_5) 0)))
(assert (= (= ri_2 true) (= (+ t_2_4 t_2_5) 1)))
(assert (=> (= ri_2 true) (= (- 1 p_prob2) t_2_4)))
(assert (=> (= ri_2 true) (= p_prob2 t_2_5)))
(assert (= (= ri_3 false) (=  t_1_3 0)))
(assert (= (= ri_3 false) (= (+ t_3_6 t_3_7) 0)))
(assert (= (= ri_3 true) (= (+ t_3_6 t_3_7) 1)))
(assert (=> (= ri_3 true) (= (- 1 p_prob2) t_3_6)))
(assert (=> (= ri_3 true) (= p_prob2 t_3_7)))
(assert (= (= ri_4 false) (=  t_2_4 0)))
(assert (= (= ri_4 false) (= (+ t_4_8 t_4_9) 0)))
(assert (= (= ri_4 true) (= (+ t_4_8 t_4_9) 1)))
(assert (=> (= ri_4 true) (= p_perrA t_4_8)))
(assert (=> (= ri_4 true) (= (- 1 p_perrA) t_4_9)))
(assert (= (= ri_5 false) (=  t_2_5 0)))
(assert (= (= ri_5 false) (= (+ t_5_8 t_5_9) 0)))
(assert (= (= ri_5 true) (= (+ t_5_8 t_5_9) 1)))
(assert (=> (= ri_5 true) (= p_perrA t_5_8)))
(assert (=> (= ri_5 true) (= (- 1 p_perrA) t_5_9)))
(assert (= (= ri_6 false) (=  t_3_6 0)))
(assert (= (= ri_6 false) (= (+ t_6_8 t_6_9) 0)))
(assert (= (= ri_6 true) (= (+ t_6_8 t_6_9) 1)))
(assert (=> (= ri_6 true) (= p_perrA t_6_8)))
(assert (=> (= ri_6 true) (= (- 1 p_perrA) t_6_9)))
(assert (= (= ri_7 false) (=  t_3_7 0)))
(assert (= (= ri_7 false) (= (+ t_7_8 t_7_9) 0)))
(assert (= (= ri_7 true) (= (+ t_7_8 t_7_9) 1)))
(assert (=> (= ri_7 true) (= (- 1 p_perrA) t_7_8)))
(assert (=> (= ri_7 true) (= p_perrA t_7_9)))
(assert (= (= ri_8 false) (= (+ t_4_8 t_5_8 t_6_8 t_7_8) 0)))
(assert (= (= ri_8 false) (=  t_8_10 0)))
(assert (= (= ri_8 true) (=  t_8_10 1)))
(assert (=> (= ri_8 true) (= 1.0 t_8_10)))
(assert (= (= ri_9 false) (= (+ t_4_9 t_5_9 t_6_9 t_7_9) 0)))
(assert (= (= ri_9 false) (=  t_9_11 0)))
(assert (= (= ri_9 true) (=  t_9_11 1)))
(assert (=> (= ri_9 true) (= 1.0 t_9_11)))
(assert (= (= ri_10 false) (=  t_8_10 0)))
(assert (= (= ri_10 false) (= (+ t_10_12 t_10_13) 0)))
(assert (= (= ri_10 true) (= (+ t_10_12 t_10_13) 1)))
(assert (=> (= ri_10 true) (= (- 1 p_prob1) t_10_12)))
(assert (=> (= ri_10 true) (= p_prob1 t_10_13)))
(assert (= (= ri_11 false) (=  t_9_11 0)))
(assert (= (= ri_11 false) (= (+ t_11_14 t_11_15) 0)))
(assert (= (= ri_11 true) (= (+ t_11_14 t_11_15) 1)))
(assert (=> (= ri_11 true) (= (- 1 p_prob1) t_11_14)))
(assert (=> (= ri_11 true) (= p_prob1 t_11_15)))
(assert (= (= ri_12 false) (=  t_10_12 0)))
(assert (= (= ri_12 false) (= (+ t_12_16 t_12_17) 0)))
(assert (= (= ri_12 true) (= (+ t_12_16 t_12_17) 1)))
(assert (=> (= ri_12 true) (= (- 1 p_prob2) t_12_16)))
(assert (=> (= ri_12 true) (= p_prob2 t_12_17)))
(assert (= (= ri_13 false) (=  t_10_13 0)))
(assert (= (= ri_13 false) (= (+ t_13_18 t_13_19) 0)))
(assert (= (= ri_13 true) (= (+ t_13_18 t_13_19) 1)))
(assert (=> (= ri_13 true) (= (- 1 p_prob2) t_13_18)))
(assert (=> (= ri_13 true) (= p_prob2 t_13_19)))
(assert (= (= ri_14 false) (=  t_11_14 0)))
(assert (= (= ri_14 false) (= (+ t_14_20 t_14_21) 0)))
(assert (= (= ri_14 true) (= (+ t_14_20 t_14_21) 1)))
(assert (=> (= ri_14 true) (= (- 1 p_prob2) t_14_20)))
(assert (=> (= ri_14 true) (= p_prob2 t_14_21)))
(assert (= (= ri_15 false) (=  t_11_15 0)))
(assert (= (= ri_15 false) (= (+ t_15_22 t_15_23) 0)))
(assert (= (= ri_15 true) (= (+ t_15_22 t_15_23) 1)))
(assert (=> (= ri_15 true) (= (- 1 p_prob2) t_15_22)))
(assert (=> (= ri_15 true) (= p_prob2 t_15_23)))
(assert (= (= ri_16 false) (=  t_12_16 0)))
(assert (= (= ri_16 false) (= (+ t_16_24 t_16_25) 0)))
(assert (= (= ri_16 true) (= (+ t_16_24 t_16_25) 1)))
(assert (=> (= ri_16 true) (= p_perrB t_16_24)))
(assert (=> (= ri_16 true) (= (- 1 p_perrB) t_16_25)))
(assert (= (= ri_17 false) (=  t_12_17 0)))
(assert (= (= ri_17 false) (= (+ t_17_24 t_17_25) 0)))
(assert (= (= ri_17 true) (= (+ t_17_24 t_17_25) 1)))
(assert (=> (= ri_17 true) (= p_perrB t_17_24)))
(assert (=> (= ri_17 true) (= (- 1 p_perrB) t_17_25)))
(assert (= (= ri_18 false) (=  t_13_18 0)))
(assert (= (= ri_18 false) (= (+ t_18_24 t_18_25) 0)))
(assert (= (= ri_18 true) (= (+ t_18_24 t_18_25) 1)))
(assert (=> (= ri_18 true) (= p_perrB t_18_24)))
(assert (=> (= ri_18 true) (= (- 1 p_perrB) t_18_25)))
(assert (= (= ri_19 false) (=  t_13_19 0)))
(assert (= (= ri_19 false) (= (+ t_19_24 t_19_25) 0)))
(assert (= (= ri_19 true) (= (+ t_19_24 t_19_25) 1)))
(assert (=> (= ri_19 true) (= (- 1 p_perrB) t_19_24)))
(assert (=> (= ri_19 true) (= p_perrB t_19_25)))
(assert (= (= ri_20 false) (=  t_14_20 0)))
(assert (= (= ri_20 false) (= (+ t_20_25 t_20_26) 0)))
(assert (= (= ri_20 true) (= (+ t_20_25 t_20_26) 1)))
(assert (=> (= ri_20 true) (= p_perrB t_20_25)))
(assert (=> (= ri_20 true) (= (- 1 p_perrB) t_20_26)))
(assert (= (= ri_21 false) (=  t_14_21 0)))
(assert (= (= ri_21 false) (= (+ t_21_25 t_21_26) 0)))
(assert (= (= ri_21 true) (= (+ t_21_25 t_21_26) 1)))
(assert (=> (= ri_21 true) (= p_perrB t_21_25)))
(assert (=> (= ri_21 true) (= (- 1 p_perrB) t_21_26)))
(assert (= (= ri_22 false) (=  t_15_22 0)))
(assert (= (= ri_22 false) (= (+ t_22_25 t_22_26) 0)))
(assert (= (= ri_22 true) (= (+ t_22_25 t_22_26) 1)))
(assert (=> (= ri_22 true) (= p_perrB t_22_25)))
(assert (=> (= ri_22 true) (= (- 1 p_perrB) t_22_26)))
(assert (= (= ri_23 false) (=  t_15_23 0)))
(assert (= (= ri_23 false) (= (+ t_23_25 t_23_26) 0)))
(assert (= (= ri_23 true) (= (+ t_23_25 t_23_26) 1)))
(assert (=> (= ri_23 true) (= (- 1 p_perrB) t_23_25)))
(assert (=> (= ri_23 true) (= p_perrB t_23_26)))
(assert (= (= ri_24 false) (= (+ t_16_24 t_17_24 t_18_24 t_19_24) 0)))
(assert (= (= ri_24 false) (=  t_24_27 0)))
(assert (= (= ri_24 true) (=  t_24_27 1)))
(assert (=> (= ri_24 true) (= 1.0 t_24_27)))
(assert (= (= ri_25 false) (= (+ t_16_25 t_17_25 t_18_25 t_19_25 t_20_25 t_21_25 t_22_25 t_23_25) 0)))
(assert (= (= ri_25 false) (=  t_25_28 0)))
(assert (= (= ri_25 true) (=  t_25_28 1)))
(assert (=> (= ri_25 true) (= 1.0 t_25_28)))
(assert (= (= ri_26 false) (= (+ t_20_26 t_21_26 t_22_26 t_23_26) 0)))
(assert (= (= ri_26 false) (=  t_26_29 0)))
(assert (= (= ri_26 true) (=  t_26_29 1)))
(assert (=> (= ri_26 true) (= 1.0 t_26_29)))
(assert (= (= ri_27 false) (=  t_24_27 0)))
(assert (= (= ri_27 false) (=  t_27_30 0)))
(assert (= (= ri_27 true) (=  t_27_30 1)))
(assert (=> (= ri_27 true) (= 1.0 t_27_30)))
(assert (= (= ri_28 false) (=  t_25_28 0)))
(assert (= (= ri_28 false) (=  t_28_31 0)))
(assert (= (= ri_28 true) (=  t_28_31 1)))
(assert (=> (= ri_28 true) (= 1.0 t_28_31)))
(assert (= (= ri_29 false) (=  t_26_29 0)))
(assert (= (= ri_29 false) (=  t_29_32 0)))
(assert (= (= ri_29 true) (=  t_29_32 1)))
(assert (=> (= ri_29 true) (= 1.0 t_29_32)))
(assert (= (= ri_30 false) (=  t_27_30 0)))
(assert (= (= ri_30 false) (=  t_30_33 0)))
(assert (= (= ri_30 true) (=  t_30_33 1)))
(assert (=> (= ri_30 true) (= 1.0 t_30_33)))
(assert (= (= ri_31 false) (=  t_28_31 0)))
(assert (= (= ri_31 false) (= (+ t_31_34 t_31_35) 0)))
(assert (= (= ri_31 true) (= (+ t_31_34 t_31_35) 1)))
(assert (=> (= ri_31 true) (= 0.5 t_31_34)))
(assert (=> (= ri_31 true) (= 0.5 t_31_35)))
(assert (= (= ri_32 false) (=  t_29_32 0)))
(assert (= (= ri_32 false) (=  t_32_36 0)))
(assert (= (= ri_32 true) (=  t_32_36 1)))
(assert (=> (= ri_32 true) (= 1.0 t_32_36)))
(assert (= (= ri_33 false) (=  t_30_33 0)))
(assert (= (= ri_33 false) (= (+ t_33_37 t_33_40) 0)))
(assert (= (= ri_33 true) (= (+ t_33_37 t_33_40) 1)))
(assert (=> (= ri_33 true) (= p_perrA t_33_37)))
(assert (=> (= ri_33 true) (= (- 1 p_perrA) t_33_40)))
(assert (= (= ri_34 false) (=  t_31_34 0)))
(assert (= (= ri_34 false) (= (+ t_34_37 t_34_40) 0)))
(assert (= (= ri_34 true) (= (+ t_34_37 t_34_40) 1)))
(assert (=> (= ri_34 true) (= (- 1 p_perrA) t_34_37)))
(assert (=> (= ri_34 true) (= p_perrA t_34_40)))
(assert (= (= ri_35 false) (=  t_31_35 0)))
(assert (= (= ri_35 false) (= (+ t_35_38 t_35_41) 0)))
(assert (= (= ri_35 true) (= (+ t_35_38 t_35_41) 1)))
(assert (=> (= ri_35 true) (= p_perrA t_35_38)))
(assert (=> (= ri_35 true) (= (- 1 p_perrA) t_35_41)))
(assert (= (= ri_36 false) (=  t_32_36 0)))
(assert (= (= ri_36 false) (= (+ t_36_39 t_36_42) 0)))
(assert (= (= ri_36 true) (= (+ t_36_39 t_36_42) 1)))
(assert (=> (= ri_36 true) (= (- 1 p_perrA) t_36_39)))
(assert (=> (= ri_36 true) (= p_perrA t_36_42)))
(assert (= (= ri_37 false) (= (+ t_33_37 t_34_37) 0)))
(assert (= (= ri_37 false) (=  t_37_43 0)))
(assert (= (= ri_37 true) (=  t_37_43 1)))
(assert (=> (= ri_37 true) (= 1.0 t_37_43)))
(assert (= (= ri_38 false) (=  t_35_38 0)))
(assert (= (= ri_38 false) (=  t_38_44 0)))
(assert (= (= ri_38 true) (=  t_38_44 1)))
(assert (=> (= ri_38 true) (= 1.0 t_38_44)))
(assert (= (= ri_39 false) (=  t_36_39 0)))
(assert (= (= ri_39 false) (=  t_39_45 0)))
(assert (= (= ri_39 true) (=  t_39_45 1)))
(assert (=> (= ri_39 true) (= 1.0 t_39_45)))
(assert (= (= ri_40 false) (= (+ t_33_40 t_34_40) 0)))
(assert (= (= ri_40 false) (=  t_40_46 0)))
(assert (= (= ri_40 true) (=  t_40_46 1)))
(assert (=> (= ri_40 true) (= 1.0 t_40_46)))
(assert (= (= ri_41 false) (=  t_35_41 0)))
(assert (= (= ri_41 false) (=  t_41_47 0)))
(assert (= (= ri_41 true) (=  t_41_47 1)))
(assert (=> (= ri_41 true) (= 1.0 t_41_47)))
(assert (= (= ri_42 false) (=  t_36_42 0)))
(assert (= (= ri_42 false) (=  t_42_48 0)))
(assert (= (= ri_42 true) (=  t_42_48 1)))
(assert (=> (= ri_42 true) (= 1.0 t_42_48)))
(assert (= (= ri_43 false) (=  t_37_43 0)))
(assert (= (= ri_43 false) (=  t_43_49 0)))
(assert (= (= ri_43 true) (=  t_43_49 1)))
(assert (=> (= ri_43 true) (= 1.0 t_43_49)))
(assert (= (= ri_44 false) (=  t_38_44 0)))
(assert (= (= ri_44 false) (=  t_44_50 0)))
(assert (= (= ri_44 true) (=  t_44_50 1)))
(assert (=> (= ri_44 true) (= 1.0 t_44_50)))
(assert (= (= ri_45 false) (=  t_39_45 0)))
(assert (= (= ri_45 false) (=  t_45_51 0)))
(assert (= (= ri_45 true) (=  t_45_51 1)))
(assert (=> (= ri_45 true) (= 1.0 t_45_51)))
(assert (= (= ri_46 false) (=  t_40_46 0)))
(assert (= (= ri_46 false) (=  t_46_52 0)))
(assert (= (= ri_46 true) (=  t_46_52 1)))
(assert (=> (= ri_46 true) (= 1.0 t_46_52)))
(assert (= (= ri_47 false) (=  t_41_47 0)))
(assert (= (= ri_47 false) (=  t_47_53 0)))
(assert (= (= ri_47 true) (=  t_47_53 1)))
(assert (=> (= ri_47 true) (= 1.0 t_47_53)))
(assert (= (= ri_48 false) (=  t_42_48 0)))
(assert (= (= ri_48 false) (=  t_48_54 0)))
(assert (= (= ri_48 true) (=  t_48_54 1)))
(assert (=> (= ri_48 true) (= 1.0 t_48_54)))
(assert (= (= ri_49 false) (=  t_43_49 0)))
(assert (= (= ri_49 false) (=  t_49_55 0)))
(assert (= (= ri_49 true) (=  t_49_55 1)))
(assert (=> (= ri_49 true) (= 1.0 t_49_55)))
(assert (= (= ri_50 false) (=  t_44_50 0)))
(assert (= (= ri_50 false) (=  t_50_56 0)))
(assert (= (= ri_50 true) (=  t_50_56 1)))
(assert (=> (= ri_50 true) (= 1.0 t_50_56)))
(assert (= (= ri_51 false) (=  t_45_51 0)))
(assert (= (= ri_51 false) (=  t_51_57 0)))
(assert (= (= ri_51 true) (=  t_51_57 1)))
(assert (=> (= ri_51 true) (= 1.0 t_51_57)))
(assert (= (= ri_52 false) (=  t_46_52 0)))
(assert (= (= ri_52 false) (=  t_52_58 0)))
(assert (= (= ri_52 true) (=  t_52_58 1)))
(assert (=> (= ri_52 true) (= 1.0 t_52_58)))
(assert (= (= ri_53 false) (=  t_47_53 0)))
(assert (= (= ri_53 false) (=  t_53_59 0)))
(assert (= (= ri_53 true) (=  t_53_59 1)))
(assert (=> (= ri_53 true) (= 1.0 t_53_59)))
(assert (= (= ri_54 false) (=  t_48_54 0)))
(assert (= (= ri_54 false) (=  t_54_60 0)))
(assert (= (= ri_54 true) (=  t_54_60 1)))
(assert (=> (= ri_54 true) (= 1.0 t_54_60)))
(assert (= (= ri_55 false) (=  t_49_55 0)))
(assert (= (= ri_55 false) (= (+ t_55_61 t_55_62) 0)))
(assert (= (= ri_55 true) (= (+ t_55_61 t_55_62) 1)))
(assert (=> (= ri_55 true) (= p_perrB t_55_61)))
(assert (=> (= ri_55 true) (= (- 1 p_perrB) t_55_62)))
(assert (= (= ri_56 false) (=  t_50_56 0)))
(assert (= (= ri_56 false) (= (+ t_56_61 t_56_62) 0)))
(assert (= (= ri_56 true) (= (+ t_56_61 t_56_62) 1)))
(assert (=> (= ri_56 true) (= p_perrB t_56_61)))
(assert (=> (= ri_56 true) (= (- 1 p_perrB) t_56_62)))
(assert (= (= ri_57 false) (=  t_51_57 0)))
(assert (= (= ri_57 false) (= (+ t_57_61 t_57_62) 0)))
(assert (= (= ri_57 true) (= (+ t_57_61 t_57_62) 1)))
(assert (=> (= ri_57 true) (= (- 1 p_perrB) t_57_61)))
(assert (=> (= ri_57 true) (= p_perrB t_57_62)))
(assert (= (= ri_58 false) (=  t_52_58 0)))
(assert (= (= ri_58 false) (= (+ t_58_62 t_58_63) 0)))
(assert (= (= ri_58 true) (= (+ t_58_62 t_58_63) 1)))
(assert (=> (= ri_58 true) (= p_perrB t_58_62)))
(assert (=> (= ri_58 true) (= (- 1 p_perrB) t_58_63)))
(assert (= (= ri_59 false) (=  t_53_59 0)))
(assert (= (= ri_59 false) (= (+ t_59_62 t_59_63) 0)))
(assert (= (= ri_59 true) (= (+ t_59_62 t_59_63) 1)))
(assert (=> (= ri_59 true) (= p_perrB t_59_62)))
(assert (=> (= ri_59 true) (= (- 1 p_perrB) t_59_63)))
(assert (= (= ri_60 false) (=  t_54_60 0)))
(assert (= (= ri_60 false) (= (+ t_60_62 t_60_63) 0)))
(assert (= (= ri_60 true) (= (+ t_60_62 t_60_63) 1)))
(assert (=> (= ri_60 true) (= (- 1 p_perrB) t_60_62)))
(assert (=> (= ri_60 true) (= p_perrB t_60_63)))
(assert (= (= ri_61 false) (= (+ t_55_61 t_56_61 t_57_61) 0)))
(assert (= (= ri_61 false) (=  t_61_64 0)))
(assert (= (= ri_61 true) (=  t_61_64 1)))
(assert (=> (= ri_61 true) (= 1.0 t_61_64)))
(assert (= (= ri_62 false) (= (+ t_55_62 t_56_62 t_57_62 t_58_62 t_59_62 t_60_62) 0)))
(assert (= (= ri_62 false) (=  t_62_65 0)))
(assert (= (= ri_62 true) (=  t_62_65 1)))
(assert (=> (= ri_62 true) (= 1.0 t_62_65)))
(assert (= (= ri_63 false) (= (+ t_58_63 t_59_63 t_60_63) 0)))
(assert (= (= ri_63 false) (=  t_63_66 0)))
(assert (= (= ri_63 true) (=  t_63_66 1)))
(assert (=> (= ri_63 true) (= 1.0 t_63_66)))
(assert (= (= ri_64 false) (=  t_61_64 0)))
(assert (= (= ri_64 false) (=  t_64_67 0)))
(assert (= (= ri_64 true) (=  t_64_67 1)))
(assert (=> (= ri_64 true) (= 1.0 t_64_67)))
(assert (= (= ri_65 false) (=  t_62_65 0)))
(assert (= (= ri_65 false) (=  t_65_68 0)))
(assert (= (= ri_65 true) (=  t_65_68 1)))
(assert (=> (= ri_65 true) (= 1.0 t_65_68)))
(assert (= (= ri_66 false) (=  t_63_66 0)))
(assert (= (= ri_66 false) (=  t_66_69 0)))
(assert (= (= ri_66 true) (=  t_66_69 1)))
(assert (=> (= ri_66 true) (= 1.0 t_66_69)))
(assert (= (= ri_67 false) (=  t_64_67 0)))
(assert (= (= ri_67 false) (=  t_67_70 0)))
(assert (= (= ri_67 true) (=  t_67_70 1)))
(assert (=> (= ri_67 true) (= 1.0 t_67_70)))
(assert (= (= ri_68 false) (=  t_65_68 0)))
(assert (= (= ri_68 false) (= (+ t_68_71 t_68_72) 0)))
(assert (= (= ri_68 true) (= (+ t_68_71 t_68_72) 1)))
(assert (=> (= ri_68 true) (= 0.5 t_68_71)))
(assert (=> (= ri_68 true) (= 0.5 t_68_72)))
(assert (= (= ri_69 false) (=  t_66_69 0)))
(assert (= (= ri_69 false) (=  t_69_73 0)))
(assert (= (= ri_69 true) (=  t_69_73 1)))
(assert (=> (= ri_69 true) (= 1.0 t_69_73)))
(assert (= (= ri_70 false) (=  t_67_70 0)))
(assert (= (= ri_70 false) (= (+ t_70_74 t_70_77) 0)))
(assert (= (= ri_70 true) (= (+ t_70_74 t_70_77) 1)))
(assert (=> (= ri_70 true) (= p_perrA t_70_74)))
(assert (=> (= ri_70 true) (= (- 1 p_perrA) t_70_77)))
(assert (= (= ri_71 false) (=  t_68_71 0)))
(assert (= (= ri_71 false) (= (+ t_71_74 t_71_77) 0)))
(assert (= (= ri_71 true) (= (+ t_71_74 t_71_77) 1)))
(assert (=> (= ri_71 true) (= (- 1 p_perrA) t_71_74)))
(assert (=> (= ri_71 true) (= p_perrA t_71_77)))
(assert (= (= ri_72 false) (=  t_68_72 0)))
(assert (= (= ri_72 false) (= (+ t_72_75 t_72_78) 0)))
(assert (= (= ri_72 true) (= (+ t_72_75 t_72_78) 1)))
(assert (=> (= ri_72 true) (= p_perrA t_72_75)))
(assert (=> (= ri_72 true) (= (- 1 p_perrA) t_72_78)))
(assert (= (= ri_73 false) (=  t_69_73 0)))
(assert (= (= ri_73 false) (= (+ t_73_76 t_73_79) 0)))
(assert (= (= ri_73 true) (= (+ t_73_76 t_73_79) 1)))
(assert (=> (= ri_73 true) (= (- 1 p_perrA) t_73_76)))
(assert (=> (= ri_73 true) (= p_perrA t_73_79)))
(assert (= (= ri_74 false) (= (+ t_70_74 t_71_74) 0)))
(assert (= (= ri_74 false) (=  t_74_80 0)))
(assert (= (= ri_74 true) (=  t_74_80 1)))
(assert (=> (= ri_74 true) (= 1.0 t_74_80)))
(assert (= (= ri_75 false) (=  t_72_75 0)))
(assert (= (= ri_75 false) (=  t_75_81 0)))
(assert (= (= ri_75 true) (=  t_75_81 1)))
(assert (=> (= ri_75 true) (= 1.0 t_75_81)))
(assert (= (= ri_76 false) (=  t_73_76 0)))
(assert (= (= ri_76 false) (=  t_76_82 0)))
(assert (= (= ri_76 true) (=  t_76_82 1)))
(assert (=> (= ri_76 true) (= 1.0 t_76_82)))
(assert (= (= ri_77 false) (= (+ t_70_77 t_71_77) 0)))
(assert (= (= ri_77 false) (=  t_77_83 0)))
(assert (= (= ri_77 true) (=  t_77_83 1)))
(assert (=> (= ri_77 true) (= 1.0 t_77_83)))
(assert (= (= ri_78 false) (=  t_72_78 0)))
(assert (= (= ri_78 false) (=  t_78_84 0)))
(assert (= (= ri_78 true) (=  t_78_84 1)))
(assert (=> (= ri_78 true) (= 1.0 t_78_84)))
(assert (= (= ri_79 false) (=  t_73_79 0)))
(assert (= (= ri_79 false) (=  t_79_85 0)))
(assert (= (= ri_79 true) (=  t_79_85 1)))
(assert (=> (= ri_79 true) (= 1.0 t_79_85)))
(assert (= (= ri_80 false) (=  t_74_80 0)))
(assert (= (= ri_80 false) (=  t_80_86 0)))
(assert (= (= ri_80 true) (=  t_80_86 1)))
(assert (=> (= ri_80 true) (= 1.0 t_80_86)))
(assert (= (= ri_81 false) (=  t_75_81 0)))
(assert (= (= ri_81 false) (=  t_81_87 0)))
(assert (= (= ri_81 true) (=  t_81_87 1)))
(assert (=> (= ri_81 true) (= 1.0 t_81_87)))
(assert (= (= ri_82 false) (=  t_76_82 0)))
(assert (= (= ri_82 false) (=  t_82_88 0)))
(assert (= (= ri_82 true) (=  t_82_88 1)))
(assert (=> (= ri_82 true) (= 1.0 t_82_88)))
(assert (= (= ri_83 false) (=  t_77_83 0)))
(assert (= (= ri_83 false) (=  t_83_89 0)))
(assert (= (= ri_83 true) (=  t_83_89 1)))
(assert (=> (= ri_83 true) (= 1.0 t_83_89)))
(assert (= (= ri_84 false) (=  t_78_84 0)))
(assert (= (= ri_84 false) (=  t_84_90 0)))
(assert (= (= ri_84 true) (=  t_84_90 1)))
(assert (=> (= ri_84 true) (= 1.0 t_84_90)))
(assert (= (= ri_85 false) (=  t_79_85 0)))
(assert (= (= ri_85 false) (=  t_85_91 0)))
(assert (= (= ri_85 true) (=  t_85_91 1)))
(assert (=> (= ri_85 true) (= 1.0 t_85_91)))
(assert (= (= ri_86 false) (=  t_80_86 0)))
(assert (= (= ri_86 false) (=  t_86_92 0)))
(assert (= (= ri_86 true) (=  t_86_92 1)))
(assert (=> (= ri_86 true) (= 1.0 t_86_92)))
(assert (= (= ri_87 false) (=  t_81_87 0)))
(assert (= (= ri_87 false) (=  t_87_93 0)))
(assert (= (= ri_87 true) (=  t_87_93 1)))
(assert (=> (= ri_87 true) (= 1.0 t_87_93)))
(assert (= (= ri_88 false) (=  t_82_88 0)))
(assert (= (= ri_88 false) (=  t_88_94 0)))
(assert (= (= ri_88 true) (=  t_88_94 1)))
(assert (=> (= ri_88 true) (= 1.0 t_88_94)))
(assert (= (= ri_89 false) (=  t_83_89 0)))
(assert (= (= ri_89 false) (=  t_89_95 0)))
(assert (= (= ri_89 true) (=  t_89_95 1)))
(assert (=> (= ri_89 true) (= 1.0 t_89_95)))
(assert (= (= ri_90 false) (=  t_84_90 0)))
(assert (= (= ri_90 false) (=  t_90_96 0)))
(assert (= (= ri_90 true) (=  t_90_96 1)))
(assert (=> (= ri_90 true) (= 1.0 t_90_96)))
(assert (= (= ri_91 false) (=  t_85_91 0)))
(assert (= (= ri_91 false) (=  t_91_97 0)))
(assert (= (= ri_91 true) (=  t_91_97 1)))
(assert (=> (= ri_91 true) (= 1.0 t_91_97)))
(assert (= (= ri_92 false) (=  t_86_92 0)))
(assert (= (= ri_92 false) (= (+ t_92_98 t_92_99) 0)))
(assert (= (= ri_92 true) (= (+ t_92_98 t_92_99) 1)))
(assert (=> (= ri_92 true) (= p_perrB t_92_98)))
(assert (=> (= ri_92 true) (= (- 1 p_perrB) t_92_99)))
(assert (= (= ri_93 false) (=  t_87_93 0)))
(assert (= (= ri_93 false) (= (+ t_93_98 t_93_99) 0)))
(assert (= (= ri_93 true) (= (+ t_93_98 t_93_99) 1)))
(assert (=> (= ri_93 true) (= p_perrB t_93_98)))
(assert (=> (= ri_93 true) (= (- 1 p_perrB) t_93_99)))
(assert (= (= ri_94 false) (=  t_88_94 0)))
(assert (= (= ri_94 false) (= (+ t_94_98 t_94_99) 0)))
(assert (= (= ri_94 true) (= (+ t_94_98 t_94_99) 1)))
(assert (=> (= ri_94 true) (= (- 1 p_perrB) t_94_98)))
(assert (=> (= ri_94 true) (= p_perrB t_94_99)))
(assert (= (= ri_95 false) (=  t_89_95 0)))
(assert (= (= ri_95 false) (= (+ t_95_100 t_95_99) 0)))
(assert (= (= ri_95 true) (= (+ t_95_100 t_95_99) 1)))
(assert (=> (= ri_95 true) (= (- 1 p_perrB) t_95_100)))
(assert (=> (= ri_95 true) (= p_perrB t_95_99)))
(assert (= (= ri_96 false) (=  t_90_96 0)))
(assert (= (= ri_96 false) (= (+ t_96_100 t_96_99) 0)))
(assert (= (= ri_96 true) (= (+ t_96_100 t_96_99) 1)))
(assert (=> (= ri_96 true) (= (- 1 p_perrB) t_96_100)))
(assert (=> (= ri_96 true) (= p_perrB t_96_99)))
(assert (= (= ri_97 false) (=  t_91_97 0)))
(assert (= (= ri_97 false) (= (+ t_97_100 t_97_99) 0)))
(assert (= (= ri_97 true) (= (+ t_97_100 t_97_99) 1)))
(assert (=> (= ri_97 true) (= p_perrB t_97_100)))
(assert (=> (= ri_97 true) (= (- 1 p_perrB) t_97_99)))
(assert (= (= ri_98 false) (= (+ t_92_98 t_93_98 t_94_98) 0)))
(assert (= (= ri_98 false) (=  t_98_101 0)))
(assert (= (= ri_98 true) (=  t_98_101 1)))
(assert (=> (= ri_98 true) (= 1.0 t_98_101)))
(assert (= (= ri_99 false) (= (+ t_92_99 t_93_99 t_94_99 t_95_99 t_96_99 t_97_99) 0)))
(assert (= (= ri_99 false) (=  t_99_102 0)))
(assert (= (= ri_99 true) (=  t_99_102 1)))
(assert (=> (= ri_99 true) (= 1.0 t_99_102)))
(assert (= (= ri_100 false) (= (+ t_95_100 t_96_100 t_97_100) 0)))
(assert (= (= ri_100 false) (=  t_100_103 0)))
(assert (= (= ri_100 true) (=  t_100_103 1)))
(assert (=> (= ri_100 true) (= 1.0 t_100_103)))
(assert (= (= ri_101 false) (=  t_98_101 0)))
(assert (= (= ri_101 false) (=  t_101_101 0)))
(assert (= (= ri_101 true) (=  t_101_101 1)))
(assert (=> (= ri_101 true) (= 1.0 t_101_101)))
(assert (= (= ri_102 false) (=  t_99_102 0)))
(assert (= (= ri_102 false) (=  t_102_102 0)))
(assert (= (= ri_102 true) (=  t_102_102 1)))
(assert (=> (= ri_102 true) (= 1.0 t_102_102)))
(assert (= (= ri_103 false) (=  t_100_103 0)))
(assert (= (= ri_103 false) (=  t_103_103 0)))
(assert (= (= ri_103 true) (=  t_103_103 1)))
(assert (=> (= ri_103 true) (= 1.0 t_103_103)))
(check-sat)
(get-value (p_perrA p_perrB p_prob1 p_prob2 ri_0 ri_1 ri_10 ri_100 ri_101 ri_102 ri_103 ri_11 ri_12 ri_13 ri_14 ri_15 ri_16 ri_17 ri_18 ri_19 ri_2 ri_20 ri_21 ri_22 ri_23 ri_24 ri_25 ri_26 ri_27 ri_28 ri_29 ri_3 ri_30 ri_31 ri_32 ri_33 ri_34 ri_35 ri_36 ri_37 ri_38 ri_39 ri_4 ri_40 ri_41 ri_42 ri_43 ri_44 ri_45 ri_46 ri_47 ri_48 ri_49 ri_5 ri_50 ri_51 ri_52 ri_53 ri_54 ri_55 ri_56 ri_57 ri_58 ri_59 ri_6 ri_60 ri_61 ri_62 ri_63 ri_64 ri_65 ri_66 ri_67 ri_68 ri_69 ri_7 ri_70 ri_71 ri_72 ri_73 ri_74 ri_75 ri_76 ri_77 ri_78 ri_79 ri_8 ri_80 ri_81 ri_82 ri_83 ri_84 ri_85 ri_86 ri_87 ri_88 ri_89 ri_9 ri_90 ri_91 ri_92 ri_93 ri_94 ri_95 ri_96 ri_97 ri_98 ri_99 t_0_1 t_100_103 t_101_101 t_102_102 t_103_103 t_10_12 t_10_13 t_11_14 t_11_15 t_12_16 t_12_17 t_13_18 t_13_19 t_14_20 t_14_21 t_15_22 t_15_23 t_16_24 t_16_25 t_17_24 t_17_25 t_18_24 t_18_25 t_19_24 t_19_25 t_1_2 t_1_3 t_20_25 t_20_26 t_21_25 t_21_26 t_22_25 t_22_26 t_23_25 t_23_26 t_24_27 t_25_28 t_26_29 t_27_30 t_28_31 t_29_32 t_2_4 t_2_5 t_30_33 t_31_34 t_31_35 t_32_36 t_33_37 t_33_40 t_34_37 t_34_40 t_35_38 t_35_41 t_36_39 t_36_42 t_37_43 t_38_44 t_39_45 t_3_6 t_3_7 t_40_46 t_41_47 t_42_48 t_43_49 t_44_50 t_45_51 t_46_52 t_47_53 t_48_54 t_49_55 t_4_8 t_4_9 t_50_56 t_51_57 t_52_58 t_53_59 t_54_60 t_55_61 t_55_62 t_56_61 t_56_62 t_57_61 t_57_62 t_58_62 t_58_63 t_59_62 t_59_63 t_5_8 t_5_9 t_60_62 t_60_63 t_61_64 t_62_65 t_63_66 t_64_67 t_65_68 t_66_69 t_67_70 t_68_71 t_68_72 t_69_73 t_6_8 t_6_9 t_70_74 t_70_77 t_71_74 t_71_77 t_72_75 t_72_78 t_73_76 t_73_79 t_74_80 t_75_81 t_76_82 t_77_83 t_78_84 t_79_85 t_7_8 t_7_9 t_80_86 t_81_87 t_82_88 t_83_89 t_84_90 t_85_91 t_86_92 t_87_93 t_88_94 t_89_95 t_8_10 t_90_96 t_91_97 t_92_98 t_92_99 t_93_98 t_93_99 t_94_98 t_94_99 t_95_100 t_95_99 t_96_100 t_96_99 t_97_100 t_97_99 t_98_101 t_99_102 t_9_11))
(get-info :all-statistics)
